0_instance_selection/optil_deployment/lite/optil/public/vc-lite_001.in
p td 313 566
1 294
1 137
1 159
1 166
1 191
1 247
1 249
1 268
294 74
294 99
294 111
294 174
294 185
294 195
294 213
2 295
2 28
2 171
2 219
2 232
2 280
2 289
295 92
295 107
295 186
295 228
295 254
295 259
3 296
3 32
3 238
3 263
3 264
3 281
3 282
296 55
296 77
296 143
296 175
296 192
296 222
296 245
4 297
4 105
4 229
4 261
4 269
4 288
297 50
297 84
297 103
297 257
297 278
5 298
5 63
5 69
5 138
5 148
5 170
5 234
5 258
5 287
5 292
298 62
298 125
6 299
6 178
6 283
6 286
6 293
299 100
299 142
299 163
299 212
299 233
299 255
7 300
7 157
7 221
7 239
300 42
300 61
300 104
300 141
300 149
300 167
300 183
300 201
300 284
8 301
8 29
8 33
8 60
8 116
8 146
8 156
8 204
8 242
301 85
301 88
301 128
301 135
9 302
9 106
9 115
9 150
9 179
9 210
9 224
9 243
302 123
302 131
302 145
302 196
302 208
10 303
10 23
10 68
10 73
10 94
10 113
10 119
10 122
10 151
10 153
10 168
10 176
10 180
10 265
303 25
303 43
303 76
303 132
303 144
303 256
303 274
11 304
11 46
11 56
11 86
11 98
11 134
11 160
11 202
11 226
11 231
304 59
304 67
304 172
304 188
12 305
12 27
12 37
12 81
12 112
12 152
12 200
12 227
12 271
305 53
305 89
305 91
305 109
305 120
305 154
305 215
305 244
305 291
13 306
13 71
13 262
13 285
306 22
306 38
306 118
306 187
306 223
306 246
14 307
14 80
14 114
14 124
14 126
14 181
14 207
14 260
307 26
307 30
307 34
307 57
307 64
307 90
307 101
307 102
307 184
307 230
307 236
15 308
15 47
15 140
15 194
15 206
15 214
15 237
15 273
308 31
308 96
308 164
308 197
308 217
308 251
308 276
16 309
16 21
16 93
16 189
16 252
309 83
309 97
309 110
309 161
309 193
309 198
309 218
309 277
17 310
17 39
17 44
17 51
17 66
17 72
17 108
17 130
17 147
17 158
17 162
17 165
17 177
17 240
17 253
17 266
310 45
310 49
310 78
310 216
310 272
310 275
18 311
18 52
18 75
18 82
18 117
18 290
311 35
311 65
311 87
311 95
19 312
19 36
19 129
19 133
19 169
19 173
19 190
19 199
19 220
19 270
312 24
312 40
312 48
312 58
312 70
312 136
312 139
312 182
312 203
312 209
312 235
312 248
312 250
312 279
20 313
20 79
20 121
20 127
20 205
20 225
20 241
20 267
313 41
313 54
313 155
313 211
21 22
21 23
22 23
24 25
24 26
25 26
27 28
27 29
28 29
30 31
30 32
31 32
33 34
33 35
34 35
36 37
36 38
37 38
39 40
39 41
40 41
42 43
42 44
43 44
45 46
45 47
46 47
48 49
48 50
49 50
51 52
51 53
52 53
54 55
54 56
55 56
57 58
57 59
58 59
60 61
60 62
61 62
63 64
63 65
64 65
66 67
66 68
67 68
69 70
69 71
70 71
72 73
72 74
73 74
75 76
75 77
76 77
78 79
78 80
79 80
81 82
81 83
82 83
84 85
84 86
85 86
87 88
87 89
88 89
90 91
90 92
91 92
93 94
93 95
94 95
96 97
96 98
97 98
99 100
99 101
100 101
102 103
102 104
103 104
105 106
105 107
106 107
108 109
108 110
109 110
111 112
111 113
112 113
114 115
114 116
115 116
117 118
117 119
118 119
120 121
120 122
121 122
123 124
123 125
124 125
126 127
126 128
127 128
129 130
129 131
130 131
132 133
132 134
133 134
135 136
135 137
136 137
138 139
138 140
139 140
141 142
141 143
142 143
144 145
144 146
145 146
147 148
147 149
148 149
150 151
150 152
151 152
153 154
153 155
154 155
156 157
156 158
157 158
159 160
159 161
160 161
162 163
162 164
163 164
165 166
165 167
166 167
168 169
168 170
169 170
171 172
171 173
172 173
174 175
174 176
175 176
177 178
177 179
178 179
180 181
180 182
181 182
183 184
183 185
184 185
186 187
186 188
187 188
189 190
189 191
190 191
192 193
192 194
193 194
195 196
195 197
196 197
198 199
198 200
199 200
201 202
201 203
202 203
204 205
204 206
205 206
207 208
207 209
208 209
210 211
210 212
211 212
213 214
213 215
214 215
216 217
216 218
217 218
219 220
219 221
220 221
222 223
222 224
223 224
225 226
225 227
226 227
228 229
228 230
229 230
231 232
231 233
232 233
234 235
234 236
235 236
237 238
237 239
238 239
240 241
240 242
241 242
243 244
243 245
244 245
246 247
246 248
247 248
249 250
249 251
250 251
252 253
252 254
253 254
255 256
255 257
256 257
258 259
258 260
259 260
261 262
261 263
262 263
264 265
264 266
265 266
267 268
267 269
268 269
270 271
270 272
271 272
273 274
273 275
274 275
276 277
276 278
277 278
279 280
279 281
280 281
282 283
282 284
283 284
285 286
285 287
286 287
288 289
288 290
289 290
291 292
291 293
292 293
