0_instance_selection/optil_deployment/lite/optil/public/vc-lite_001.out
s vc 313 202
1
2
4
5
8
10
11
12
15
17
20
21
23
24
25
27
28
31
32
34
35
36
37
40
41
43
44
45
47
49
50
52
53
54
55
57
59
60
62
64
65
67
68
70
71
72
74
75
76
78
80
82
83
84
85
88
89
91
92
93
95
96
97
99
100
102
103
106
107
109
110
111
112
114
115
117
118
120
121
124
125
126
128
129
131
132
133
135
137
138
140
142
143
144
145
147
148
150
152
154
155
156
157
159
161
163
164
165
166
168
169
172
173
174
175
178
179
181
182
184
185
186
188
189
190
192
193
195
197
198
199
202
203
205
206
207
208
210
211
213
215
216
217
220
221
222
224
225
227
228
229
231
232
234
236
238
239
240
241
243
244
246
247
249
251
252
254
256
257
259
260
262
263
264
266
267
268
270
272
274
275
276
278
279
281
282
283
285
286
288
290
291
293
296
299
300
302
306
307
309
311
312
